problems/csplib-prob054/nqueens-models/01_noch_lvlPruned/O2/minion/model-16-solution000001.eprime-solution
language ESSENCE' 1.0

letting arrangement_Function1D be [1, 3, 5, 2, 13, 9, 14, 12, 15, 6, 16, 7, 4, 11, 8, 10; int(1..16)]
