problems/csplib-prob054/nqueens-models/01_noch_lvlPruned/O2/minion/model-16-solution000001.solution
language Essence 1.3

letting arrangement be
        function(1 --> 1, 2 --> 3, 3 --> 5, 4 --> 2, 5 --> 13, 6 --> 9, 7 --> 14, 8 --> 12, 9 --> 15, 10 --> 6,
                 11 --> 16, 12 --> 7, 13 --> 4, 14 --> 11, 15 --> 8, 16 --> 10)
